282	52	4	141	
12	12	12	13

0	0	0	0	0	0	3	1	2	3
1	2	0	0	0	8	1	21
2	9	0	0	0	6	1	4
3	0	9	0	0	6	1	7
4	0	5	0	0	5	1	5
5	5	0	0	0	9	1	6
6	2	0	0	0	3	1	8
7	0	0	0	8	8	1	9
8	0	6	0	0	7	1	10
9	0	0	7	0	7	1	14
10	0	3	0	0	10	1	11
11	0	8	0	0	3	1	12
12	7	0	0	0	10	1	13
13	0	2	0	0	10	1	15
14	0	0	0	6	4	1	16
15	0	0	9	0	7	2	17	25
16	4	0	0	0	1	2	27	28
17	0	0	0	5	2	1	18
18	0	0	2	0	1	1	19
19	0	0	5	0	3	1	20
20	0	7	0	0	9	1	23
21	0	0	1	0	3	1	22
22	0	4	0	0	6	1	24
23	0	4	0	0	4	1	26
24	0	0	0	10	3	1	25
25	0	0	5	0	6	1	30
26	0	0	5	0	6	1	27
27	7	0	0	0	10	2	38	50
28	0	0	4	0	9	1	29
29	0	2	0	0	3	1	31
30	0	8	0	0	2	2	31	32
31	0	0	6	0	4	1	33
32	0	0	0	10	9	1	34
33	7	0	0	0	6	1	37
34	7	0	0	0	2	1	35
35	0	0	0	10	4	1	36
36	0	0	0	6	9	1	39
37	0	0	0	6	10	1	40
38	0	0	3	0	4	1	42
39	0	2	0	0	4	1	41
40	0	0	0	8	6	1	45
41	0	0	0	3	1	1	47
42	0	0	0	4	9	1	43
43	5	0	0	0	6	1	44
44	0	9	0	0	3	1	46
45	0	0	10	0	5	1	48
46	0	0	0	10	8	1	49
47	0	0	0	4	2	1	50
48	0	0	0	7	10	1	51
49	0	8	0	0	4	1	51
50	0	0	3	0	5	1	51
51	0	0	0	0	0	0
